
Gurobi 11.0.3 (linux64) logging started Tue 19 Nov 2024 07:57:25 PM CST

Set parameter LogFile to value "/home/dlcole3/graph_abstraction/hierarchical_graphs/git_storage/CS1/HP_low_reserves/gurobi_logs/monolith/logfile5.log"
Set parameter NodefileStart to value 0.0005
Set parameter TimeLimit to value 7200

Gurobi 11.0.3 (linux64) logging started Tue 19 Nov 2024 07:58:04 PM CST

Set parameter LogFile to value "/home/dlcole3/graph_abstraction/hierarchical_graphs/git_storage/CS1/HP_low_reserves/gurobi_logs/monolith/logfile5.log"
Set parameter TimeLimit to value 7200
Gurobi Optimizer version 11.0.3 build v11.0.3rc0 (linux64 - "Ubuntu 18.04.3 LTS")

CPU model: Intel(R) Xeon(R) CPU E5-2698 v4 @ 2.20GHz, instruction set [SSE2|AVX|AVX2]
Thread count: 40 physical cores, 80 logical processors, using up to 20 threads

Optimize a model with 1105538 rows, 641709 columns and 4646693 nonzeros
Model fingerprint: 0x99680cce
Variable types: 599982 continuous, 41727 integer (41727 binary)
Coefficient statistics:
  Matrix range     [5e-02, 2e+04]
  Objective range  [2e-01, 8e+04]
  Bounds range     [5e-02, 2e+05]
  RHS range        [9e-05, 7e+03]
Presolve removed 252726 rows and 123473 columns (presolve time = 5s) ...
Presolve removed 262001 rows and 124375 columns (presolve time = 10s) ...
Presolve removed 265511 rows and 125485 columns (presolve time = 15s) ...
Presolve removed 265918 rows and 125687 columns (presolve time = 20s) ...
Presolve removed 266020 rows and 125687 columns (presolve time = 25s) ...
Presolve removed 266040 rows and 125757 columns (presolve time = 30s) ...
Sparsify removed 138227 nonzeros (3%)
Presolve removed 266040 rows and 124546 columns
Presolve time: 34.90s
Presolved: 839498 rows, 517163 columns, 4484633 nonzeros
Variable types: 477123 continuous, 40040 integer (39973 binary)

Deterministic concurrent LP optimizer: primal simplex, dual simplex, and barrier
Showing barrier log only...

Root barrier log...

Elapsed ordering time = 5s
Elapsed ordering time = 10s
Elapsed ordering time = 38s
Elapsed ordering time = 41s
Elapsed ordering time = 46s
Elapsed ordering time = 50s
Elapsed ordering time = 55s
Elapsed ordering time = 64s
Elapsed ordering time = 67s
Elapsed ordering time = 70s
Elapsed ordering time = 75s
Elapsed ordering time = 80s
Elapsed ordering time = 93s
Elapsed ordering time = 96s
Elapsed ordering time = 100s
Elapsed ordering time = 105s
Elapsed ordering time = 110s
Ordering time: 114.52s

Barrier statistics:
 Dense cols : 306
 AA' NZ     : 4.875e+07
 Factor NZ  : 5.321e+08 (roughly 5.0 GB of memory)
 Factor Ops : 2.846e+12 (roughly 10 seconds per iteration)
 Threads    : 17

                  Objective                Residual
Iter       Primal          Dual         Primal    Dual     Compl     Time
   0  -2.11798920e+11 -1.80217804e+13  1.30e+04 1.52e+04  1.16e+08   174s
   1  -1.44376998e+11 -1.50719562e+13  9.51e+03 1.64e+05  8.24e+07   179s
   2  -1.02229860e+11 -1.18317907e+13  7.00e+03 7.91e+04  5.59e+07   185s
   3  -5.66140758e+10 -7.89849030e+12  4.12e+03 2.45e+04  3.13e+07   190s
   4  -1.94860743e+10 -3.56839934e+12  1.59e+03 4.86e+02  1.14e+07   197s
   5  -4.84284169e+09 -1.36600117e+12  5.91e+02 4.07e+02  3.90e+06   207s
   6   1.18780168e+09 -7.40503381e+11  2.07e+02 3.77e+02  1.39e+06   216s
   7   3.40613083e+09 -3.38512279e+11  7.11e+01 1.82e+01  4.49e+05   226s
   8   3.82676534e+09 -1.57201664e+11  3.31e+01 1.42e+01  1.76e+05   238s
   9   3.41025515e+09 -6.44587616e+10  1.33e+01 3.15e+00  6.08e+04   247s
  10   2.15093231e+09 -2.70974210e+10  7.10e+00 8.39e-01  2.41e+04   255s
  11   1.26664316e+09 -1.41321444e+10  4.16e+00 3.50e-01  1.17e+04   263s
  12   7.05493523e+08 -6.54835122e+09  2.19e+00 1.32e-01  5.13e+03   271s
  13   2.21886834e+08 -2.86365370e+09  5.09e-01 4.97e-02  1.91e+03   280s
  14   9.33657613e+07 -8.41225354e+08  8.54e-02 1.33e-02  5.47e+02   289s
  15   5.97601812e+07 -2.32034965e+08  1.05e-02 3.86e-03  1.68e+02   299s
  16   5.11774430e+07 -9.44554600e+07  4.18e-03 1.95e-03  8.38e+01   308s
  17   4.54760748e+07 -1.15648518e+07  2.38e-03 6.88e-04  3.28e+01   317s
  18   4.23560873e+07  7.46753990e+05  1.61e-03 5.10e-04  2.39e+01   325s
  19   4.08353455e+07  1.10478214e+07  1.31e-03 3.48e-04  1.71e+01   333s
  20   3.87695919e+07  1.77774339e+07  9.36e-04 2.40e-04  1.21e+01   341s
  21   3.62863036e+07  2.32733411e+07  5.33e-04 1.51e-04  7.49e+00   350s
  22   3.51780778e+07  2.71619415e+07  3.74e-04 8.58e-05  4.61e+00   359s
  23   3.44518013e+07  2.95509547e+07  2.80e-04 4.49e-05  2.82e+00   369s
  24   3.37256528e+07  3.05233134e+07  1.88e-04 2.84e-05  1.84e+00   378s
  25   3.33667809e+07  3.11078892e+07  1.45e-04 1.81e-05  1.30e+00   388s
  26   3.31272303e+07  3.14381049e+07  1.16e-04 1.20e-05  9.73e-01   397s
  27   3.27857413e+07  3.15071999e+07  7.97e-05 1.07e-05  7.36e-01   406s
  28   3.26356775e+07  3.16463020e+07  6.38e-05 8.24e-06  5.70e-01   414s
  29   3.24822596e+07  3.18201751e+07  4.55e-05 4.90e-06  3.82e-01   423s
  30   3.24102378e+07  3.18801520e+07  3.76e-05 3.75e-06  3.05e-01   432s
  31   3.23668623e+07  3.19358924e+07  3.28e-05 2.74e-06  2.48e-01   441s
  32   3.22757347e+07  3.19604219e+07  2.35e-05 2.25e-06  1.82e-01   450s
  33   3.22618150e+07  3.19964300e+07  2.18e-05 1.59e-06  1.53e-01   459s
  34   3.22300257e+07  3.20100070e+07  1.82e-05 1.32e-06  1.27e-01   468s
  35   3.22092136e+07  3.20258268e+07  1.78e-05 1.03e-06  1.06e-01   476s
  36   3.21822161e+07  3.20409983e+07  3.44e-05 7.47e-07  8.15e-02   485s
  37   3.21586195e+07  3.20512243e+07  2.43e-05 5.51e-07  6.20e-02   494s
  38   3.21343962e+07  3.20648086e+07  1.90e-05 2.88e-07  4.02e-02   503s
  39   3.21149514e+07  3.20691293e+07  1.65e-05 1.99e-07  2.64e-02   512s
  40   3.21019493e+07  3.20727179e+07  1.01e-05 1.26e-07  1.69e-02   521s
  41   3.20921601e+07  3.20757840e+07  6.87e-06 7.20e-08  9.45e-03   530s
  42   3.20896193e+07  3.20762427e+07  5.68e-06 6.32e-08  7.72e-03   540s
  43   3.20848333e+07  3.20782011e+07  2.74e-06 2.01e-08  3.83e-03   549s
  44   3.20838808e+07  3.20788563e+07  2.97e-06 1.36e-08  2.90e-03   564s
  45   3.20829689e+07  3.20791864e+07  2.48e-06 5.66e-09  2.18e-03   577s
  46   3.20825109e+07  3.20792683e+07  2.10e-06 7.08e-09  1.87e-03   588s
  47   3.20822888e+07  3.20793266e+07  1.92e-06 5.22e-09  1.71e-03   599s
  48   3.20819010e+07  3.20793896e+07  1.79e-06 6.41e-09  1.45e-03   612s
  49   3.20816504e+07  3.20794620e+07  1.57e-06 5.38e-09  1.26e-03   627s
  50   3.20813632e+07  3.20794999e+07  1.36e-06 6.12e-09  1.08e-03   642s
  51   3.20810846e+07  3.20795565e+07  1.21e-06 5.35e-09  8.83e-04   657s
  52   3.20807468e+07  3.20795941e+07  9.41e-07 6.21e-09  6.66e-04   672s
  53   3.20798494e+07  3.20796529e+07  1.30e-07 6.52e-09  1.13e-04   686s
  54   3.20797431e+07  3.20796843e+07  4.83e-08 6.05e-09  3.40e-05   701s
  55   3.20797050e+07  3.20796917e+07  2.43e-08 5.81e-09  7.64e-06   714s
  56   3.20796952e+07  3.20796935e+07  9.64e-07 7.52e-09  9.41e-07   723s
  57   3.20796945e+07  3.20796944e+07  3.35e-08 6.68e-09  1.22e-08   732s
  58   3.20796945e+07  3.20796945e+07  2.60e-07 2.07e-08  1.01e-10   741s

Barrier solved model in 58 iterations and 741.44 seconds (790.49 work units)
Optimal objective 3.20796945e+07


Root crossover log...

  301734 DPushes remaining with DInf 0.0000000e+00               743s
  116040 DPushes remaining with DInf 0.0000000e+00               751s
   78738 DPushes remaining with DInf 0.0000000e+00               757s
   60672 DPushes remaining with DInf 0.0000000e+00               760s
   35350 DPushes remaining with DInf 0.0000000e+00               766s
   22940 DPushes remaining with DInf 0.0000000e+00               771s
   10227 DPushes remaining with DInf 0.0000000e+00               776s
    4401 DPushes remaining with DInf 0.0000000e+00               780s
       0 DPushes remaining with DInf 0.0000000e+00               784s

   15842 PPushes remaining with PInf 0.0000000e+00               784s
    8953 PPushes remaining with PInf 0.0000000e+00               785s
       0 PPushes remaining with PInf 0.0000000e+00               788s

  Push phase complete: Pinf 0.0000000e+00, Dinf 4.5386990e-07    788s


Root simplex log...

Iteration    Objective       Primal Inf.    Dual Inf.      Time
  148360    3.2079694e+07   0.000000e+00   0.000000e+00    789s
  148360    3.2079694e+07   0.000000e+00   0.000000e+00    790s
Waiting for other threads to finish...         857s
Waiting for other threads to finish...         924s
Waiting for other threads to finish...         990s
Waiting for other threads to finish...        1057s
Waiting for other threads to finish...        1123s
Waiting for other threads to finish...        1190s
Waiting for other threads to finish...        1256s
Waiting for other threads to finish...        1322s
Waiting for other threads to finish...        1389s
Waiting for other threads to finish...        1456s
Waiting for other threads to finish...        1522s
Waiting for other threads to finish...        1589s
Waiting for other threads to finish...        1655s
Concurrent spin time: 888.27s (can be avoided by choosing Method=3)

Solved with barrier

Root relaxation: objective 3.207969e+07, 148360 iterations, 1639.59 seconds (777.59 work units)
Total elapsed time = 1686.90s (DegenMoves)

    Nodes    |    Current Node    |     Objective Bounds      |     Work
 Expl Unexpl |  Obj  Depth IntInf | Incumbent    BestBd   Gap | It/Node Time

     0     0 3.2080e+07    0  192          - 3.2080e+07      -     - 1697s
H    0     0                    3.385985e+07 3.2080e+07  5.26%     - 1763s
H    0     0                    3.385985e+07 3.2080e+07  5.26%     - 1854s
     0     0 3.2144e+07    0  181 3.3860e+07 3.2144e+07  5.07%     - 2065s
     0     0 3.2145e+07    0  181 3.3860e+07 3.2145e+07  5.07%     - 2152s
     0     0 3.2156e+07    0  141 3.3860e+07 3.2156e+07  5.03%     - 2211s
     0     0 3.2157e+07    0  145 3.3860e+07 3.2157e+07  5.03%     - 2257s
     0     0 3.2157e+07    0  144 3.3860e+07 3.2157e+07  5.03%     - 2261s
     0     0 3.2157e+07    0  145 3.3860e+07 3.2157e+07  5.03%     - 2265s
     0     0 3.2158e+07    0  130 3.3860e+07 3.2158e+07  5.03%     - 2306s
     0     0 3.2158e+07    0  129 3.3860e+07 3.2158e+07  5.03%     - 2377s
     0     0 3.2158e+07    0  129 3.3860e+07 3.2158e+07  5.03%     - 2382s
     0     0 3.2158e+07    0  118 3.3860e+07 3.2158e+07  5.03%     - 2411s
     0     0 3.2158e+07    0  118 3.3860e+07 3.2158e+07  5.03%     - 2453s
     0     0 3.2158e+07    0  118 3.3860e+07 3.2158e+07  5.03%     - 2475s
     0     0 3.2159e+07    0  118 3.3860e+07 3.2159e+07  5.02%     - 2554s
     0     2 3.2159e+07    0  118 3.3860e+07 3.2159e+07  5.02%     - 2687s
     1     4 3.2164e+07    1  133 3.3860e+07 3.2159e+07  5.02%  4362 2742s
     3     8 3.2173e+07    2  108 3.3860e+07 3.2164e+07  5.01%  5286 2797s
     7    16 3.2193e+07    3  116 3.3860e+07 3.2173e+07  4.98%  4043 2899s
    15    32 3.2216e+07    4  111 3.3860e+07 3.2193e+07  4.92%  4560 2962s
    31    52 3.2220e+07    5  106 3.3860e+07 3.2196e+07  4.91%  7408 5306s
H   34    52                    3.274981e+07 3.2196e+07  1.69%  8409 5306s
    51    72 3.2226e+07    6  115 3.2750e+07 3.2196e+07  1.69% 32146 5422s
    71    92 3.2229e+07    6  107 3.2750e+07 3.2196e+07  1.69% 23758 5513s
    91   112 3.2253e+07    7  142 3.2750e+07 3.2196e+07  1.69% 19119 5645s
H   98   112                    3.262490e+07 3.2196e+07  1.32% 17819 5646s
H  100   112                    3.251357e+07 3.2196e+07  0.98% 17562 5646s

Cutting planes:
  Gomory: 8
  Implied bound: 897
  MIR: 49
  Flow cover: 2779
  Relax-and-lift: 204

Explored 111 nodes (1978519 simplex iterations) in 5647.12 seconds (4076.58 work units)
Thread count was 20 (of 80 available processors)

Solution count 5: 3.25136e+07 3.25136e+07 3.26249e+07 ... 3.38598e+07

Optimal solution found (tolerance 1.00e-02)
Best objective 3.251356618953e+07, best bound 3.219583513118e+07, gap 0.9772%

User-callback calls 2451460, time in user-callback 8.98 sec
